% MIT License
%
% Copyright (c) 2021 Johan Ludde Wessén
%
% Permission is hereby granted, free of charge, to any person obtaining 
% a copy of this software and associated documentation files (the "Software"),
% to deal in the Software without restriction, including without limitation 
% the rights to use, copy, modify, merge, publish, distribute, sublicense, 
% and/or sell copies of the Software, and to permit persons to whom the 
% Software is furnished to do so, subject to the following conditions:
% 
% The above copyright notice and this permission notice shall be included 
% in all copies or substantial portions of the Software.
%
% THE SOFTWARE IS PROVIDED "AS IS", WITHOUT WARRANTY OF ANY KIND, 
% EXPRESS OR IMPLIED, INCLUDING BUT NOT LIMITED TO THE WARRANTIES OF
% MERCHANTABILITY, FITNESS FOR A PARTICULAR PURPOSE AND
% NONINFRINGEMENT. IN NO EVENT SHALL THE AUTHORS OR COPYRIGHT HOLDERS BE
% LIABLE FOR ANY CLAIM, DAMAGES OR OTHER LIABILITY, WHETHER IN AN ACTION
% OF CONTRACT, TORT OR OTHERWISE, ARISING FROM, OUT OF OR IN CONNECTION
% WITH THE SOFTWARE OR THE USE OR OTHER DEALINGS IN THE SOFTWARE.

%-----------------------------------------------------------------------------%
% Dual Arm Multi Capacity Multi Tool Scheduling / Routing
% Assembly Configuration
% Auto Generated by python script, authored by Johan Ludde Wessen 
%-----------------------------------------------------------------------------%


task_durations = [|21, 26, 32, 26, 34, 34, 24, 25, 21, 31, 21, 31, 56, 59, 50, 52, 57, 61, 42, 49, 52, 57, 59, 63,  5,  7,  4,  8,  7,  7,  6,  6,  4,  5,  8
                  |24, 25, 27, 22, 33, 28, 22, 25, 25, 23, 26, 35, 51, 58, 56, 58, 48, 47, 44, 59, 46, 56, 55, 52,  6,  6,  5,  7,  7,  5,  5,  8,  6,  4,  7
                  |];


TRAY_TASKS = 1..10;
CAMERA_TASKS = {  };
OUTPUT_TASKS = { 24 };


empty_gripper_tasks = 25..35;


gripper_pick_tasks_orders = [|1, 13, -1
|2, 14, -1
|3, 15, -1
|4, 16, -1
|5, 17, -1
|6, 18, -1
|7, 19, -1
|8, 20, -1
|9, 21, -1
|10, 22, -1
|11, 23, -1
|12, 24, -1
|];

suction_pick_tasks_orders = [||];

fixture_task_orders = [|13, 25, 14, 26, 15, 27, 16, 28, 17, 29, 11, -1, -1, -1
|18, 30, 19, 31, 20, 32, 21, 33, 22, 34, 23, 35, 12, -1
|];


% MIT License
%
% Copyright (c) 2021 Johan Ludde Wessén
%
% Permission is hereby granted, free of charge, to any person obtaining 
% a copy of this software and associated documentation files (the "Software"),
% to deal in the Software without restriction, including without limitation 
% the rights to use, copy, modify, merge, publish, distribute, sublicense, 
% and/or sell copies of the Software, and to permit persons to whom the 
% Software is furnished to do so, subject to the following conditions:
% 
% The above copyright notice and this permission notice shall be included 
% in all copies or substantial portions of the Software.
%
% THE SOFTWARE IS PROVIDED "AS IS", WITHOUT WARRANTY OF ANY KIND, 
% EXPRESS OR IMPLIED, INCLUDING BUT NOT LIMITED TO THE WARRANTIES OF
% MERCHANTABILITY, FITNESS FOR A PARTICULAR PURPOSE AND
% NONINFRINGEMENT. IN NO EVENT SHALL THE AUTHORS OR COPYRIGHT HOLDERS BE
% LIABLE FOR ANY CLAIM, DAMAGES OR OTHER LIABILITY, WHETHER IN AN ACTION
% OF CONTRACT, TORT OR OTHERWISE, ARISING FROM, OUT OF OR IN CONNECTION
% WITH THE SOFTWARE OR THE USE OR OTHER DEALINGS IN THE SOFTWARE.


%-----------------------------------------------------------------------------%
% Dual Arm Multi Capacity Multi Tool Scheduling / Routing
% YuMi + Workspace Configuration
% Auto Generated by python scrip, authored by Ludde Wessen 
%-----------------------------------------------------------------------------%


no_suction_cups = 2;
left_arm_travel_times = [|
  -1, -1, -1, -1, -1, -1, -1, -1, -1, -1, -1, -1, -1, -1, -1, -1, -1, -1, -1, -1, -1, -1, -1, -1, -1, -1, -1, -1, -1, -1, -1, -1, -1, -1, -1, -1, -1, -1, -1, -1, -1, -1, -1, -1, -1, -1, -1,
| -1, -1, -1, -1, -1, -1, -1, -1, -1, -1, -1, -1, -1, -1, -1, -1, -1, -1, -1, -1, -1, -1, -1, -1, -1, -1, -1, -1, -1, -1, -1, -1, -1, -1, -1, -1, -1, -1, -1, -1, -1, -1, -1, -1, -1, -1, -1,
| -1, -1, -1, -1, -1, -1, -1, -1, -1, -1, -1, -1, -1, -1, -1, -1, -1, -1, -1, -1, -1, -1, -1, -1, -1, -1, -1, -1, -1, -1, -1, -1, -1, -1, -1, -1, -1, -1, -1, -1, -1, -1, -1, -1, -1, -1, -1,
| -1, -1, -1, -1, -1, -1, -1, -1, -1, -1, -1, -1, -1, -1, -1, -1, -1, -1, -1, -1, -1, -1, -1, -1, -1, -1, -1, -1, -1, -1, -1, -1, -1, -1, -1, -1, -1, -1, -1, -1, -1, -1, -1, -1, -1, -1, -1,
| -1, -1, -1, -1,  0, -1, -1, -1, -1, 53, 67, 87, 77, 79, 86, 95,110,116,118,122,131, -1, -1, -1, -1, -1, 34, 46, -1, -1, 60, 73, 99, 82, 84, 90, 99,119,120,121,125,139, 38, 42, 75,121, -1,
| -1, -1, -1, -1, -1, -1, -1, -1, -1, -1, -1, -1, -1, -1, -1, -1, -1, -1, -1, -1, -1, -1, -1, -1, -1, -1, -1, -1, -1, -1, -1, -1, -1, -1, -1, -1, -1, -1, -1, -1, -1, -1, -1, -1, -1, -1, -1,
| -1, -1, -1, -1, -1, -1, -1, -1, -1, -1, -1, -1, -1, -1, -1, -1, -1, -1, -1, -1, -1, -1, -1, -1, -1, -1, -1, -1, -1, -1, -1, -1, -1, -1, -1, -1, -1, -1, -1, -1, -1, -1, -1, -1, -1, -1, -1,
| -1, -1, -1, -1, -1, -1, -1, -1, -1, -1, -1, -1, -1, -1, -1, -1, -1, -1, -1, -1, -1, -1, -1, -1, -1, -1, -1, -1, -1, -1, -1, -1, -1, -1, -1, -1, -1, -1, -1, -1, -1, -1, -1, -1, -1, -1, -1,
| -1, -1, -1, -1, -1, -1, -1, -1, -1, -1, -1, -1, -1, -1, -1, -1, -1, -1, -1, -1, -1, -1, -1, -1, -1, -1, -1, -1, -1, -1, -1, -1, -1, -1, -1, -1, -1, -1, -1, -1, -1, -1, -1, -1, -1, -1, -1,
| -1, -1, -1, -1, 53, -1, -1, -1, -1,  0, 18, 44, 53, 43, 38, 43, 59, 86, 79, 77, 83, -1, -1, -1, -1, -1, 51, 48, -1, -1, 28, 34, 64, 60, 51, 48, 51, 75, 90, 84, 82, 96, 37, 20, 88, 83, -1,
| -1, -1, -1, -1, 67, -1, -1, -1, -1, 18,  0, 30, 67, 53, 43, 38, 49, 95, 86, 79, 81, -1, -1, -1, -1, -1, 60, 51, -1, -1, 34, 28, 56, 73, 60, 51, 48, 68, 99, 90, 84, 94, 56, 39,103, 88, -1,
| -1, -1, -1, -1, 87, -1, -1, -1, -1, 44, 30,  0, 87, 72, 59, 49, 38,110, 98, 89, 79, -1, -1, -1, -1, -1, 68, 53, -1, -1, 37, 18, 28, 83, 68, 53, 43, 48,107, 95, 86, 84, 78, 62,109, 87, -1,
| -1, -1, -1, -1, 77, -1, -1, -1, -1, 53, 67, 87,  0, 18, 37, 55, 78, 38, 43, 53, 72, -1, -1, -1, -1, -1, 84, 90, -1, -1, 60, 73, 99, 28, 34, 46, 62, 91, 48, 51, 60, 86, 38, 42, 75, 59, -1,
| -1, -1, -1, -1, 79, -1, -1, -1, -1, 43, 53, 72, 18,  0, 18, 37, 60, 43, 38, 43, 59, -1, -1, -1, -1, -1, 82, 84, -1, -1, 51, 60, 86, 34, 28, 34, 46, 77, 51, 48, 51, 75, 43, 38, 84, 54, -1,
| -1, -1, -1, -1, 86, -1, -1, -1, -1, 38, 43, 59, 37, 18,  0, 18, 44, 53, 43, 38, 49, -1, -1, -1, -1, -1, 84, 82, -1, -1, 48, 51, 75, 46, 34, 28, 34, 64, 60, 51, 48, 68, 54, 44, 96, 54, -1,
| -1, -1, -1, -1, 95, -1, -1, -1, -1, 43, 38, 49, 55, 37, 18,  0, 30, 67, 53, 43, 46, -1, -1, -1, -1, -1, 90, 84, -1, -1, 51, 48, 68, 62, 46, 34, 28, 56, 73, 60, 51, 65, 68, 55,110, 61, -1,
| -1, -1, -1, -1,110, -1, -1, -1, -1, 59, 49, 38, 78, 60, 44, 30,  0, 87, 72, 59, 43, -1, -1, -1, -1, -1, 95, 86, -1, -1, 53, 43, 48, 74, 55, 37, 18, 28, 83, 68, 53, 51, 88, 73,116, 60, -1,
| -1, -1, -1, -1,116, -1, -1, -1, -1, 86, 95,110, 38, 43, 53, 67, 87,  0, 18, 37, 60, -1, -1, -1, -1, -1,121,125, -1, -1, 90, 99,119, 48, 51, 60, 73, 99, 28, 34, 46, 77, 77, 79,101, 50, -1,
| -1, -1, -1, -1,118, -1, -1, -1, -1, 79, 86, 98, 43, 38, 43, 53, 72, 18,  0, 18, 44, -1, -1, -1, -1, -1,120,121, -1, -1, 84, 90,109, 51, 48, 51, 60, 86, 34, 28, 34, 64, 80, 77,108, 44, -1,
| -1, -1, -1, -1,122, -1, -1, -1, -1, 77, 79, 89, 53, 43, 38, 43, 59, 37, 18,  0, 30, -1, -1, -1, -1, -1,121,120, -1, -1, 82, 84,101, 60, 51, 48, 51, 75, 46, 34, 28, 56, 86, 80,117, 44, -1,
| -1, -1, -1, -1,131, -1, -1, -1, -1, 83, 81, 79, 72, 59, 49, 46, 43, 60, 44, 30,  0, -1, -1, -1, -1, -1,122,118, -1, -1, 79, 77, 84, 68, 53, 43, 39, 51, 55, 37, 18, 28, 99, 90,120, 35, -1,
| -1, -1, -1, -1, -1, -1, -1, -1, -1, -1, -1, -1, -1, -1, -1, -1, -1, -1, -1, -1, -1, -1, -1, -1, -1, -1, -1, -1, -1, -1, -1, -1, -1, -1, -1, -1, -1, -1, -1, -1, -1, -1, -1, -1, -1, -1, -1,
| -1, -1, -1, -1, -1, -1, -1, -1, -1, -1, -1, -1, -1, -1, -1, -1, -1, -1, -1, -1, -1, -1, -1, -1, -1, -1, -1, -1, -1, -1, -1, -1, -1, -1, -1, -1, -1, -1, -1, -1, -1, -1, -1, -1, -1, -1, -1,
| -1, -1, -1, -1, -1, -1, -1, -1, -1, -1, -1, -1, -1, -1, -1, -1, -1, -1, -1, -1, -1, -1, -1, -1, -1, -1, -1, -1, -1, -1, -1, -1, -1, -1, -1, -1, -1, -1, -1, -1, -1, -1, -1, -1, -1, -1, -1,
| -1, -1, -1, -1, -1, -1, -1, -1, -1, -1, -1, -1, -1, -1, -1, -1, -1, -1, -1, -1, -1, -1, -1, -1, -1, -1, -1, -1, -1, -1, -1, -1, -1, -1, -1, -1, -1, -1, -1, -1, -1, -1, -1, -1, -1, -1, -1,
| -1, -1, -1, -1, -1, -1, -1, -1, -1, -1, -1, -1, -1, -1, -1, -1, -1, -1, -1, -1, -1, -1, -1, -1, -1, -1, -1, -1, -1, -1, -1, -1, -1, -1, -1, -1, -1, -1, -1, -1, -1, -1, -1, -1, -1, -1, -1,
| -1, -1, -1, -1, 34, -1, -1, -1, -1, 51, 60, 68, 84, 82, 84, 90, 95,121,120,121,122, -1, -1, -1, -1, -1,  0, 18, -1, -1, 43, 53, 72, 79, 77, 79, 86, 98,118,116,118,124, 51, 48, 68,111, -1,
| -1, -1, -1, -1, 46, -1, -1, -1, -1, 48, 51, 53, 90, 84, 82, 84, 86,125,121,120,118, -1, -1, -1, -1, -1, 18,  0, -1, -1, 38, 43, 59, 86, 79, 77, 79, 89,122,118,116,120, 61, 52, 83,111, -1,
| -1, -1, -1, -1, -1, -1, -1, -1, -1, -1, -1, -1, -1, -1, -1, -1, -1, -1, -1, -1, -1, -1, -1, -1, -1, -1, -1, -1, -1, -1, -1, -1, -1, -1, -1, -1, -1, -1, -1, -1, -1, -1, -1, -1, -1, -1, -1,
| -1, -1, -1, -1, -1, -1, -1, -1, -1, -1, -1, -1, -1, -1, -1, -1, -1, -1, -1, -1, -1, -1, -1, -1, -1, -1, -1, -1, -1, -1, -1, -1, -1, -1, -1, -1, -1, -1, -1, -1, -1, -1, -1, -1, -1, -1, -1,
| -1, -1, -1, -1, 60, -1, -1, -1, -1, 28, 34, 37, 60, 51, 48, 51, 53, 90, 84, 82, 79, -1, -1, -1, -1, -1, 43, 38, -1, -1,  0, 18, 44, 53, 43, 38, 43, 59, 86, 79, 77, 83, 47, 35, 73, 73, -1,
| -1, -1, -1, -1, 73, -1, -1, -1, -1, 34, 28, 18, 73, 60, 51, 48, 43, 99, 90, 84, 77, -1, -1, -1, -1, -1, 53, 43, -1, -1, 18,  0, 30, 67, 53, 43, 38, 49, 95, 86, 79, 81, 63, 48, 91, 78, -1,
| -1, -1, -1, -1, 99, -1, -1, -1, -1, 64, 56, 28, 99, 86, 75, 68, 48,119,109,101, 84, -1, -1, -1, -1, -1, 72, 59, -1, -1, 44, 30,  0, 87, 72, 59, 49, 38,110, 98, 89, 79, 92, 78,105, 86, -1,
| -1, -1, -1, -1, 82, -1, -1, -1, -1, 60, 73, 83, 28, 34, 46, 62, 74, 48, 51, 60, 68, -1, -1, -1, -1, -1, 79, 86, -1, -1, 53, 67, 87,  0, 18, 37, 55, 78, 38, 43, 53, 72, 48, 50, 57, 44, -1,
| -1, -1, -1, -1, 84, -1, -1, -1, -1, 51, 60, 68, 34, 28, 34, 46, 55, 51, 48, 51, 53, -1, -1, -1, -1, -1, 77, 79, -1, -1, 43, 53, 72, 18,  0, 18, 37, 60, 43, 38, 43, 59, 51, 48, 68, 36, -1,
| -1, -1, -1, -1, 90, -1, -1, -1, -1, 48, 51, 53, 46, 34, 28, 34, 37, 60, 51, 48, 43, -1, -1, -1, -1, -1, 79, 77, -1, -1, 38, 43, 59, 37, 18,  0, 18, 44, 53, 43, 38, 49, 61, 52, 83, 37, -1,
| -1, -1, -1, -1, 99, -1, -1, -1, -1, 51, 48, 43, 62, 46, 34, 28, 18, 73, 60, 51, 39, -1, -1, -1, -1, -1, 86, 79, -1, -1, 43, 38, 49, 55, 37, 18,  0, 30, 67, 53, 43, 46, 74, 62, 98, 46, -1,
| -1, -1, -1, -1,119, -1, -1, -1, -1, 75, 68, 48, 91, 77, 64, 56, 28, 99, 86, 75, 51, -1, -1, -1, -1, -1, 98, 89, -1, -1, 59, 49, 38, 78, 60, 44, 30,  0, 87, 72, 59, 43, 99, 87,112, 58, -1,
| -1, -1, -1, -1,120, -1, -1, -1, -1, 90, 99,107, 48, 51, 60, 73, 83, 28, 34, 46, 55, -1, -1, -1, -1, -1,118,122, -1, -1, 86, 95,110, 38, 43, 53, 67, 87,  0, 18, 37, 60, 82, 84, 88, 30, -1,
| -1, -1, -1, -1,121, -1, -1, -1, -1, 84, 90, 95, 51, 48, 51, 60, 68, 34, 28, 34, 37, -1, -1, -1, -1, -1,116,118, -1, -1, 79, 86, 98, 43, 38, 43, 53, 72, 18,  0, 18, 44, 85, 82, 96, 17, -1,
| -1, -1, -1, -1,125, -1, -1, -1, -1, 82, 84, 86, 60, 51, 48, 51, 53, 46, 34, 28, 18, -1, -1, -1, -1, -1,118,116, -1, -1, 77, 79, 89, 53, 43, 38, 43, 59, 37, 18,  0, 30, 91, 85,107, 18, -1,
| -1, -1, -1, -1,139, -1, -1, -1, -1, 96, 94, 84, 86, 75, 68, 65, 51, 77, 64, 56, 28, -1, -1, -1, -1, -1,124,120, -1, -1, 83, 81, 79, 72, 59, 49, 46, 43, 60, 44, 30,  0,109,102,116, 31, -1,
| -1, -1, -1, -1, 38, -1, -1, -1, -1, 37, 56, 78, 38, 43, 54, 68, 88, 77, 80, 86, 99, -1, -1, -1, -1, -1, 51, 61, -1, -1, 47, 63, 92, 48, 51, 61, 74, 99, 82, 85, 91,109,  0, 17, 64, 87, -1,
| -1, -1, -1, -1, 42, -1, -1, -1, -1, 20, 39, 62, 42, 38, 44, 55, 73, 79, 77, 80, 90, -1, -1, -1, -1, -1, 48, 52, -1, -1, 35, 48, 78, 50, 48, 52, 62, 87, 84, 82, 85,102, 17,  0, 74, 83, -1,
| -1, -1, -1, -1, 75, -1, -1, -1, -1, 88,103,109, 75, 84, 96,110,116,101,108,117,120, -1, -1, -1, -1, -1, 68, 83, -1, -1, 73, 91,105, 57, 68, 83, 98,112, 88, 96,107,116, 64, 74,  0, 92, -1,
| -1, -1, -1, -1,121, -1, -1, -1, -1, 83, 88, 87, 59, 54, 54, 61, 60, 50, 44, 44, 35, -1, -1, -1, -1, -1,111,111, -1, -1, 73, 78, 86, 44, 36, 37, 46, 58, 30, 17, 18, 31, 87, 83, 92,  0, -1,
| -1, -1, -1, -1, -1, -1, -1, -1, -1, -1, -1, -1, -1, -1, -1, -1, -1, -1, -1, -1, -1, -1, -1, -1, -1, -1, -1, -1, -1, -1, -1, -1, -1, -1, -1, -1, -1, -1, -1, -1, -1, -1, -1, -1, -1, -1, -1
|];

right_arm_travel_times = [|
   0, 18, 37, 60, 38, 43, 53, 67, 87, 86, 95,110,116, -1, -1, -1, -1, -1, -1, -1, -1, 28, 34, 46, 77, 48, 51, 60, 73, 99, 90, 99,119, -1,121,125, -1, -1, -1, -1, -1, -1, 77, 79,101, -1, 50,
| 18,  0, 18, 44, 43, 38, 43, 53, 72, 79, 86, 98,118, -1, -1, -1, -1, -1, -1, -1, -1, 34, 28, 34, 64, 51, 48, 51, 60, 86, 84, 90,109, -1,120,121, -1, -1, -1, -1, -1, -1, 80, 77,108, -1, 44,
| 37, 18,  0, 30, 53, 43, 38, 43, 59, 77, 79, 89,122, -1, -1, -1, -1, -1, -1, -1, -1, 46, 34, 28, 56, 60, 51, 48, 51, 75, 82, 84,101, -1,121,120, -1, -1, -1, -1, -1, -1, 86, 80,117, -1, 44,
| 60, 44, 30,  0, 72, 59, 49, 46, 43, 83, 81, 79,131, -1, -1, -1, -1, -1, -1, -1, -1, 55, 37, 18, 28, 68, 53, 43, 39, 51, 79, 77, 84, -1,122,118, -1, -1, -1, -1, -1, -1, 99, 90,120, -1, 35,
| 38, 43, 53, 72,  0, 18, 37, 55, 78, 53, 67, 87, 77, -1, -1, -1, -1, -1, -1, -1, -1, 48, 51, 60, 86, 28, 34, 46, 62, 91, 60, 73, 99, -1, 84, 90, -1, -1, -1, -1, -1, -1, 38, 42, 75, -1, 59,
| 43, 38, 43, 59, 18,  0, 18, 37, 60, 43, 53, 72, 79, -1, -1, -1, -1, -1, -1, -1, -1, 51, 48, 51, 75, 34, 28, 34, 46, 77, 51, 60, 86, -1, 82, 84, -1, -1, -1, -1, -1, -1, 43, 38, 84, -1, 54,
| 53, 43, 38, 49, 37, 18,  0, 18, 44, 38, 43, 59, 86, -1, -1, -1, -1, -1, -1, -1, -1, 60, 51, 48, 68, 46, 34, 28, 34, 64, 48, 51, 75, -1, 84, 82, -1, -1, -1, -1, -1, -1, 54, 44, 96, -1, 54,
| 67, 53, 43, 46, 55, 37, 18,  0, 30, 43, 38, 49, 95, -1, -1, -1, -1, -1, -1, -1, -1, 73, 60, 51, 65, 62, 46, 34, 28, 56, 51, 48, 68, -1, 90, 84, -1, -1, -1, -1, -1, -1, 68, 55,110, -1, 61,
| 87, 72, 59, 43, 78, 60, 44, 30,  0, 59, 49, 38,110, -1, -1, -1, -1, -1, -1, -1, -1, 83, 68, 53, 51, 74, 55, 37, 18, 28, 53, 43, 48, -1, 95, 86, -1, -1, -1, -1, -1, -1, 88, 73,116, -1, 60,
| 86, 79, 77, 83, 53, 43, 38, 43, 59,  0, 18, 44, 53, -1, -1, -1, -1, -1, -1, -1, -1, 90, 84, 82, 96, 60, 51, 48, 51, 75, 28, 34, 64, -1, 51, 48, -1, -1, -1, -1, -1, -1, 37, 20, 88, -1, 83,
| 95, 86, 79, 81, 67, 53, 43, 38, 49, 18,  0, 30, 67, -1, -1, -1, -1, -1, -1, -1, -1, 99, 90, 84, 94, 73, 60, 51, 48, 68, 34, 28, 56, -1, 60, 51, -1, -1, -1, -1, -1, -1, 56, 39,103, -1, 88,
|110, 98, 89, 79, 87, 72, 59, 49, 38, 44, 30,  0, 87, -1, -1, -1, -1, -1, -1, -1, -1,107, 95, 86, 84, 83, 68, 53, 43, 48, 37, 18, 28, -1, 68, 53, -1, -1, -1, -1, -1, -1, 78, 62,109, -1, 87,
|116,118,122,131, 77, 79, 86, 95,110, 53, 67, 87,  0, -1, -1, -1, -1, -1, -1, -1, -1,120,121,125,139, 82, 84, 90, 99,119, 60, 73, 99, -1, 34, 46, -1, -1, -1, -1, -1, -1, 38, 42, 75, -1,121,
| -1, -1, -1, -1, -1, -1, -1, -1, -1, -1, -1, -1, -1, -1, -1, -1, -1, -1, -1, -1, -1, -1, -1, -1, -1, -1, -1, -1, -1, -1, -1, -1, -1, -1, -1, -1, -1, -1, -1, -1, -1, -1, -1, -1, -1, -1, -1,
| -1, -1, -1, -1, -1, -1, -1, -1, -1, -1, -1, -1, -1, -1, -1, -1, -1, -1, -1, -1, -1, -1, -1, -1, -1, -1, -1, -1, -1, -1, -1, -1, -1, -1, -1, -1, -1, -1, -1, -1, -1, -1, -1, -1, -1, -1, -1,
| -1, -1, -1, -1, -1, -1, -1, -1, -1, -1, -1, -1, -1, -1, -1, -1, -1, -1, -1, -1, -1, -1, -1, -1, -1, -1, -1, -1, -1, -1, -1, -1, -1, -1, -1, -1, -1, -1, -1, -1, -1, -1, -1, -1, -1, -1, -1,
| -1, -1, -1, -1, -1, -1, -1, -1, -1, -1, -1, -1, -1, -1, -1, -1, -1, -1, -1, -1, -1, -1, -1, -1, -1, -1, -1, -1, -1, -1, -1, -1, -1, -1, -1, -1, -1, -1, -1, -1, -1, -1, -1, -1, -1, -1, -1,
| -1, -1, -1, -1, -1, -1, -1, -1, -1, -1, -1, -1, -1, -1, -1, -1, -1, -1, -1, -1, -1, -1, -1, -1, -1, -1, -1, -1, -1, -1, -1, -1, -1, -1, -1, -1, -1, -1, -1, -1, -1, -1, -1, -1, -1, -1, -1,
| -1, -1, -1, -1, -1, -1, -1, -1, -1, -1, -1, -1, -1, -1, -1, -1, -1, -1, -1, -1, -1, -1, -1, -1, -1, -1, -1, -1, -1, -1, -1, -1, -1, -1, -1, -1, -1, -1, -1, -1, -1, -1, -1, -1, -1, -1, -1,
| -1, -1, -1, -1, -1, -1, -1, -1, -1, -1, -1, -1, -1, -1, -1, -1, -1, -1, -1, -1, -1, -1, -1, -1, -1, -1, -1, -1, -1, -1, -1, -1, -1, -1, -1, -1, -1, -1, -1, -1, -1, -1, -1, -1, -1, -1, -1,
| -1, -1, -1, -1, -1, -1, -1, -1, -1, -1, -1, -1, -1, -1, -1, -1, -1, -1, -1, -1, -1, -1, -1, -1, -1, -1, -1, -1, -1, -1, -1, -1, -1, -1, -1, -1, -1, -1, -1, -1, -1, -1, -1, -1, -1, -1, -1,
| 28, 34, 46, 55, 48, 51, 60, 73, 83, 90, 99,107,120, -1, -1, -1, -1, -1, -1, -1, -1,  0, 18, 37, 60, 38, 43, 53, 67, 87, 86, 95,110, -1,118,122, -1, -1, -1, -1, -1, -1, 82, 84, 88, -1, 30,
| 34, 28, 34, 37, 51, 48, 51, 60, 68, 84, 90, 95,121, -1, -1, -1, -1, -1, -1, -1, -1, 18,  0, 18, 44, 43, 38, 43, 53, 72, 79, 86, 98, -1,116,118, -1, -1, -1, -1, -1, -1, 85, 82, 96, -1, 17,
| 46, 34, 28, 18, 60, 51, 48, 51, 53, 82, 84, 86,125, -1, -1, -1, -1, -1, -1, -1, -1, 37, 18,  0, 30, 53, 43, 38, 43, 59, 77, 79, 89, -1,118,116, -1, -1, -1, -1, -1, -1, 91, 85,107, -1, 18,
| 77, 64, 56, 28, 86, 75, 68, 65, 51, 96, 94, 84,139, -1, -1, -1, -1, -1, -1, -1, -1, 60, 44, 30,  0, 72, 59, 49, 46, 43, 83, 81, 79, -1,124,120, -1, -1, -1, -1, -1, -1,109,102,116, -1, 31,
| 48, 51, 60, 68, 28, 34, 46, 62, 74, 60, 73, 83, 82, -1, -1, -1, -1, -1, -1, -1, -1, 38, 43, 53, 72,  0, 18, 37, 55, 78, 53, 67, 87, -1, 79, 86, -1, -1, -1, -1, -1, -1, 48, 50, 57, -1, 44,
| 51, 48, 51, 53, 34, 28, 34, 46, 55, 51, 60, 68, 84, -1, -1, -1, -1, -1, -1, -1, -1, 43, 38, 43, 59, 18,  0, 18, 37, 60, 43, 53, 72, -1, 77, 79, -1, -1, -1, -1, -1, -1, 51, 48, 68, -1, 36,
| 60, 51, 48, 43, 46, 34, 28, 34, 37, 48, 51, 53, 90, -1, -1, -1, -1, -1, -1, -1, -1, 53, 43, 38, 49, 37, 18,  0, 18, 44, 38, 43, 59, -1, 79, 77, -1, -1, -1, -1, -1, -1, 61, 52, 83, -1, 37,
| 73, 60, 51, 39, 62, 46, 34, 28, 18, 51, 48, 43, 99, -1, -1, -1, -1, -1, -1, -1, -1, 67, 53, 43, 46, 55, 37, 18,  0, 30, 43, 38, 49, -1, 86, 79, -1, -1, -1, -1, -1, -1, 74, 62, 98, -1, 46,
| 99, 86, 75, 51, 91, 77, 64, 56, 28, 75, 68, 48,119, -1, -1, -1, -1, -1, -1, -1, -1, 87, 72, 59, 43, 78, 60, 44, 30,  0, 59, 49, 38, -1, 98, 89, -1, -1, -1, -1, -1, -1, 99, 87,112, -1, 58,
| 90, 84, 82, 79, 60, 51, 48, 51, 53, 28, 34, 37, 60, -1, -1, -1, -1, -1, -1, -1, -1, 86, 79, 77, 83, 53, 43, 38, 43, 59,  0, 18, 44, -1, 43, 38, -1, -1, -1, -1, -1, -1, 47, 35, 73, -1, 73,
| 99, 90, 84, 77, 73, 60, 51, 48, 43, 34, 28, 18, 73, -1, -1, -1, -1, -1, -1, -1, -1, 95, 86, 79, 81, 67, 53, 43, 38, 49, 18,  0, 30, -1, 53, 43, -1, -1, -1, -1, -1, -1, 63, 48, 91, -1, 78,
|119,109,101, 84, 99, 86, 75, 68, 48, 64, 56, 28, 99, -1, -1, -1, -1, -1, -1, -1, -1,110, 98, 89, 79, 87, 72, 59, 49, 38, 44, 30,  0, -1, 72, 59, -1, -1, -1, -1, -1, -1, 92, 78,105, -1, 86,
| -1, -1, -1, -1, -1, -1, -1, -1, -1, -1, -1, -1, -1, -1, -1, -1, -1, -1, -1, -1, -1, -1, -1, -1, -1, -1, -1, -1, -1, -1, -1, -1, -1, -1, -1, -1, -1, -1, -1, -1, -1, -1, -1, -1, -1, -1, -1,
|121,120,121,122, 84, 82, 84, 90, 95, 51, 60, 68, 34, -1, -1, -1, -1, -1, -1, -1, -1,118,116,118,124, 79, 77, 79, 86, 98, 43, 53, 72, -1,  0, 18, -1, -1, -1, -1, -1, -1, 51, 48, 68, -1,111,
|125,121,120,118, 90, 84, 82, 84, 86, 48, 51, 53, 46, -1, -1, -1, -1, -1, -1, -1, -1,122,118,116,120, 86, 79, 77, 79, 89, 38, 43, 59, -1, 18,  0, -1, -1, -1, -1, -1, -1, 61, 52, 83, -1,111,
| -1, -1, -1, -1, -1, -1, -1, -1, -1, -1, -1, -1, -1, -1, -1, -1, -1, -1, -1, -1, -1, -1, -1, -1, -1, -1, -1, -1, -1, -1, -1, -1, -1, -1, -1, -1, -1, -1, -1, -1, -1, -1, -1, -1, -1, -1, -1,
| -1, -1, -1, -1, -1, -1, -1, -1, -1, -1, -1, -1, -1, -1, -1, -1, -1, -1, -1, -1, -1, -1, -1, -1, -1, -1, -1, -1, -1, -1, -1, -1, -1, -1, -1, -1, -1, -1, -1, -1, -1, -1, -1, -1, -1, -1, -1,
| -1, -1, -1, -1, -1, -1, -1, -1, -1, -1, -1, -1, -1, -1, -1, -1, -1, -1, -1, -1, -1, -1, -1, -1, -1, -1, -1, -1, -1, -1, -1, -1, -1, -1, -1, -1, -1, -1, -1, -1, -1, -1, -1, -1, -1, -1, -1,
| -1, -1, -1, -1, -1, -1, -1, -1, -1, -1, -1, -1, -1, -1, -1, -1, -1, -1, -1, -1, -1, -1, -1, -1, -1, -1, -1, -1, -1, -1, -1, -1, -1, -1, -1, -1, -1, -1, -1, -1, -1, -1, -1, -1, -1, -1, -1,
| -1, -1, -1, -1, -1, -1, -1, -1, -1, -1, -1, -1, -1, -1, -1, -1, -1, -1, -1, -1, -1, -1, -1, -1, -1, -1, -1, -1, -1, -1, -1, -1, -1, -1, -1, -1, -1, -1, -1, -1, -1, -1, -1, -1, -1, -1, -1,
| -1, -1, -1, -1, -1, -1, -1, -1, -1, -1, -1, -1, -1, -1, -1, -1, -1, -1, -1, -1, -1, -1, -1, -1, -1, -1, -1, -1, -1, -1, -1, -1, -1, -1, -1, -1, -1, -1, -1, -1, -1, -1, -1, -1, -1, -1, -1,
| 77, 80, 86, 99, 38, 43, 54, 68, 88, 37, 56, 78, 38, -1, -1, -1, -1, -1, -1, -1, -1, 82, 85, 91,109, 48, 51, 61, 74, 99, 47, 63, 92, -1, 51, 61, -1, -1, -1, -1, -1, -1,  0, 17, 64, -1, 87,
| 79, 77, 80, 90, 42, 38, 44, 55, 73, 20, 39, 62, 42, -1, -1, -1, -1, -1, -1, -1, -1, 84, 82, 85,102, 50, 48, 52, 62, 87, 35, 48, 78, -1, 48, 52, -1, -1, -1, -1, -1, -1, 17,  0, 74, -1, 83,
|101,108,117,120, 75, 84, 96,110,116, 88,103,109, 75, -1, -1, -1, -1, -1, -1, -1, -1, 88, 96,107,116, 57, 68, 83, 98,112, 73, 91,105, -1, 68, 83, -1, -1, -1, -1, -1, -1, 64, 74,  0, -1, 92,
| -1, -1, -1, -1, -1, -1, -1, -1, -1, -1, -1, -1, -1, -1, -1, -1, -1, -1, -1, -1, -1, -1, -1, -1, -1, -1, -1, -1, -1, -1, -1, -1, -1, -1, -1, -1, -1, -1, -1, -1, -1, -1, -1, -1, -1, -1, -1,
| 50, 44, 44, 35, 59, 54, 54, 61, 60, 83, 88, 87,121, -1, -1, -1, -1, -1, -1, -1, -1, 30, 17, 18, 31, 44, 36, 37, 46, 58, 73, 78, 86, -1,111,111, -1, -1, -1, -1, -1, -1, 87, 83, 92, -1,  0
|];

%                    Tray 1,   Tray 2,   Tray 3,   Tray 4,   Tray 5,   Tray 6,   Tray 7,   Tray 8,   Tray 9,   Tray10,   Tray11,   Tray12,   Tray13,   Tray14,   Tray15,   Tray16,   Tray17,   Tray18,   Tray19,   Tray20,   Tray21, Camera 1, Camera 2, Camera 3, Camera 4, Camera 5, Camera 6, Camera 7, Camera 8, Camera 9, Camera10, Camera11, Camera12, Camera13, Camera14, Camera15, Camera16, Camera17, Camera18, Camera19, Camera20, Camera21,Fixture 1,Fixture 2,Fixture 3, AirGun 1, Output 1,
%                         1,        2,        3,        4,        5,        6,        7,        8,        9,       10,       11,       12,       13,       14,       15,       16,       17,       18,       19,       20,       21,       22,       23,       24,       25,       26,       27,       28,       29,       30,       31,       32,       33,       34,       35,       36,       37,       38,       39,       40,       41,       42,       43,       44,       45,       46,       47,
location_order = [       10,        9,        8,        7,        9,        8,        7,        6,        6,        5,        5,        5,        0,        2,        3,        3,        4,        0,        1,        1,        2,       10,        9,        8,        7,        9,        8,        7,        6,        6,        5,        5,        5,        0,        2,        3,        3,        4,        0,        1,        1,        2,       -1,       -2,       -3,        1,        8];


FixtureWorkObstruction = [3, 6];


TRAY_LOCATIONS = 1..21;
CAMERA_LOCATIONS = 22..42;
FIXTURE_LOCATIONS = 43..45;
AIRGUN_LOCATIONS = 46..46;
OUTPUT_LOCATIONS = 47..47;


